\ LP format - for model browsing. Use MPS format to capture full model detail.
Maximize
obj:   x[1] + x[4] + x[5] + x[102] + x[106] + x[108] + x[110] + x[83] + x[150]
   + x[117] + x[22] + x[23] + x[120] + x[89] + x[126] + x[31] + x[2]
   + x[64] + x[6] + x[49] + x[8] + x[74] + x[45] + x[113] + x[147] + x[84]
   + x[30] + x[118] + x[119] + x[24] + x[25] + x[70] + x[58] + x[134]
   + x[3] + x[98] + x[77] + x[51] + x[52] + x[116] + x[90] + x[63] + x[29]
   + x[62] + x[127] + x[34] + x[100] + x[81] + x[47] + x[18] + x[143]
   + x[93] + x[72] + x[137] + x[13] + x[148] + x[122] + x[125] + x[33]
   + x[99] + x[40] + x[55] + x[28] + x[7] + x[27] + x[103] + x[10] + x[76]
   + x[111] + x[20] + x[149] + x[26] + x[123] + x[138] + x[95] + x[80]
   + x[130] + x[39] + x[109] + x[48] + x[114] + x[85] + x[9] + x[32]
   + x[65] + x[66] + x[91] + x[68] + x[107] + x[17] + x[82] + x[115]
   + x[59] + x[144] + x[41] + x[43] + x[44] + x[112] + x[88] + x[121]
   + x[11] + x[129] + x[105] + x[12] + x[96] + x[35] + x[36] + x[142]
   + x[15] + x[146] + x[57] + x[140] + x[14] + x[73] + x[75] + x[78]
   + x[71] + x[92] + x[16] + x[67] + x[69] + x[104] + x[56] + x[37] + x[60]
   + x[141] + x[19] + x[132] + x[139] + x[145] + x[101] + x[21] + x[133]
   + x[42] + x[46] + x[54] + x[135] + x[53] + x[61] + x[128] + x[136]
   + x[50] + x[79] + x[94] + x[97] + x[124] + x[131] + x[87] + x[38]
   + x[86]
Subject To
 nod1: 10 x[1] + x[4] + x[5] + x[102] + x[106] + x[108] + x[110] + x[83]
   + x[150] + x[117] + x[22] + x[23] + x[120] + x[89] + x[126] + x[31]
   <= 10
 nod4: x[1] + 9 x[4] + x[74] + x[113] + x[84] + x[90] + x[34] + x[100]
   + x[81] + x[47] + x[18] + x[143] + x[93] <= 9
 nod5: x[1] + 7 x[5] + x[108] + x[83] + x[89] + x[2] + x[8] + x[72]
   + x[137] + x[13] + x[148] + x[122] + x[125] <= 7
 nod102: x[1] + 17 x[102] + x[64] + x[134] + x[51] + x[62] + x[34] + x[47]
   + x[143] + x[148] + x[33] + x[111] + x[95] + x[85] + x[32] + x[66]
   + x[91] + x[107] + x[17] + x[96] + x[16] + x[38] <= 17
 nod106: x[1] + 14 x[106] + x[150] + x[117] + x[49] + x[147] + x[90]
   + x[29] + x[100] + x[81] + x[47] + x[143] + x[148] + x[95] + x[82]
   + x[59] + x[121] + x[67] + x[19] + x[133] + x[135] + x[136] + x[97]
   <= 14
 nod108: x[1] + x[5] + 10 x[108] + x[110] + x[83] + x[64] + x[113] + x[147]
   + x[70] + x[58] + x[81] + x[28] + x[130] + x[114] + x[32] + x[144]
   + x[96] + x[146] <= 10
 nod110: x[1] + x[108] + 12 x[110] + x[117] + x[49] + x[8] + x[74] + x[70]
   + x[134] + x[62] + x[125] + x[39] + x[32] + x[107] + x[82] + x[12]
   + x[75] + x[16] + x[56] + x[61] <= 12
 nod83: x[1] + x[5] + x[108] + 13 x[83] + x[120] + x[113] + x[118] + x[125]
   + x[7] + x[76] + x[20] + x[130] + x[109] + x[107] + x[43] + x[78]
   + x[71] + x[69] + x[104] + x[19] + x[132] + x[54] + x[97] + x[131]
   + x[38] <= 13
 nod150: x[1] + x[106] + 11 x[150] + x[119] + x[58] + x[77] + x[116]
   + x[29] + x[122] + x[149] + x[80] + x[9] + x[41] + x[71] + x[104]
   + x[79] + x[131] <= 11
 nod117: x[1] + x[106] + x[110] + 7 x[117] + x[81] + x[149] + x[80] + x[9]
   + x[32] + x[59] + x[12] + x[140] + x[56] + x[87] + x[38] <= 7
 nod22: x[1] + 8 x[22] + x[84] + x[118] + x[98] + x[143] + x[68] + x[17]
   + x[44] + x[121] + x[36] + x[73] + x[78] <= 8
 nod23: x[1] + 10 x[23] + x[89] + x[126] + x[45] + x[3] + x[90] + x[122]
   + x[103] + x[76] + x[26] + x[71] + x[135] <= 10
 nod120: x[1] + x[83] + 13 x[120] + x[49] + x[25] + x[58] + x[34] + x[100]
   + x[33] + x[76] + x[149] + x[130] + x[107] + x[82] + x[59] + x[144]
   + x[105] + x[12] + x[142] + x[57] + x[104] + x[60] + x[132] + x[61]
   + x[94] + x[124] <= 13
 nod89: x[1] + x[5] + x[23] + 10 x[89] + x[2] + x[52] + x[116] + x[90]
   + x[32] + x[12] + x[57] + x[75] + x[53] + x[124] <= 10
 nod126: x[1] + x[23] + 10 x[126] + x[118] + x[13] + x[125] + x[95]
   + x[130] + x[107] + x[115] + x[41] + x[44] + x[96] + x[35] + x[69]
   + x[37] <= 10
 nod31: x[1] + 13 x[31] + x[84] + x[116] + x[63] + x[29] + x[148] + x[40]
   + x[27] + x[10] + x[32] + x[121] + x[140] + x[73] + x[71] + x[56]
   + x[21] + x[61] + x[124] <= 13
 nod2: x[5] + x[89] + 13 x[2] + x[64] + x[6] + x[49] + x[8] + x[74] + x[45]
   + x[113] + x[147] + x[84] + x[30] + x[118] + x[119] + x[24] + x[25]
   + x[70] + x[58] + x[134] <= 13
 nod64: x[102] + x[108] + x[2] + 10 x[64] + x[119] + x[58] + x[63] + x[13]
   + x[99] + x[48] + x[71] + x[16] + x[104] + x[135] + x[61] <= 10
 nod6: x[2] + 6 x[6] + x[84] + x[25] + x[58] + x[63] + x[47] + x[33]
   + x[99] + x[40] + x[55] + x[28] <= 6
 nod49: x[106] + x[110] + x[120] + x[2] + 10 x[49] + x[25] + x[143] + x[72]
   + x[26] + x[130] + x[82] + x[142] + x[140] + x[104] + x[56] + x[135]
   + x[53] <= 10
 nod8: x[5] + x[110] + x[2] + 10 x[8] + x[20] + x[26] + x[138] + x[80]
   + x[130] + x[39] + x[109] + x[48] + x[114] + x[85] <= 10
 nod74: x[4] + x[110] + x[2] + 8 x[74] + x[70] + x[62] + x[93] + x[13]
   + x[122] + x[40] + x[95] + x[32] + x[107] + x[73] + x[37] <= 8
 nod45: x[23] + x[2] + 10 x[45] + x[77] + x[90] + x[29] + x[93] + x[65]
   + x[17] + x[88] + x[14] + x[75] + x[67] + x[69] + x[19] + x[50] <= 10
 nod113: x[4] + x[108] + x[83] + x[2] + 11 x[113] + x[98] + x[143] + x[93]
   + x[28] + x[20] + x[114] + x[65] + x[66] + x[59] + x[35] + x[146]
   + x[14] + x[78] + x[101] + x[133] <= 11
 nod147: x[106] + x[108] + x[2] + 6 x[147] + x[93] + x[17] + x[79] <= 6
 nod84: x[4] + x[22] + x[31] + x[2] + x[6] + 12 x[84] + x[98] + x[77]
   + x[123] + x[39] + x[17] + x[112] + x[36] + x[142] + x[139] + x[94]
   + x[38] <= 12
 nod30: x[2] + 11 x[30] + x[118] + x[29] + x[34] + x[143] + x[137] + x[40]
   + x[7] + x[111] + x[39] + x[82] + x[129] + x[92] + x[67] + x[69]
   + x[141] + x[133] + x[97] <= 11
 nod118: x[83] + x[22] + x[126] + x[2] + x[30] + 11 x[118] + x[77] + x[34]
   + x[72] + x[125] + x[33] + x[27] + x[130] + x[144] + x[105] + x[12]
   + x[146] + x[73] + x[16] + x[60] + x[53] + x[97] + x[131] <= 11
 nod119: x[150] + x[2] + x[64] + 10 x[119] + x[77] + x[100] + x[47] + x[26]
   + x[138] + x[121] + x[35] + x[101] + x[53] + x[50] + x[79] + x[124]
   <= 10
 nod24: x[2] + 13 x[24] + x[77] + x[51] + x[116] + x[100] + x[55] + x[130]
   + x[32] + x[91] + x[107] + x[88] + x[11] + x[14] + x[37] + x[139]
   + x[42] + x[53] + x[61] <= 13
 nod25: x[120] + x[2] + x[6] + x[49] + 15 x[25] + x[52] + x[62] + x[127]
   + x[47] + x[148] + x[99] + x[55] + x[7] + x[149] + x[80] + x[66] + x[88]
   + x[75] + x[37] + x[60] + x[145] + x[54] + x[128] + x[136] + x[50]
   <= 15
 nod70: x[108] + x[110] + x[2] + x[74] + 10 x[70] + x[90] + x[125] + x[55]
   + x[80] + x[39] + x[11] + x[96] + x[35] + x[142] + x[92] + x[56]
   + x[145] <= 10
 nod58: x[108] + x[150] + x[120] + x[2] + x[64] + x[6] + 11 x[58] + x[81]
   + x[143] + x[137] + x[99] + x[107] + x[41] + x[140] + x[14] + x[92]
   + x[104] + x[132] + x[145] + x[50] <= 11
 nod134: x[102] + x[110] + x[2] + 13 x[134] + x[116] + x[81] + x[55]
   + x[20] + x[39] + x[48] + x[91] + x[88] + x[140] + x[104] + x[97]
   + x[131] <= 13
 nod3: x[23] + 9 x[3] + x[98] + x[77] + x[51] + x[52] + x[116] + x[90]
   + x[63] + x[29] + x[62] + x[127] <= 9
 nod98: x[22] + x[113] + x[84] + x[3] + 11 x[98] + x[90] + x[55] + x[7]
   + x[27] + x[123] + x[66] + x[107] + x[11] + x[73] + x[37] + x[42]
   + x[46] + x[136] + x[94] <= 11
 nod77: x[150] + x[45] + x[84] + x[118] + x[119] + x[24] + x[3] + 13 x[77]
   + x[47] + x[93] + x[33] + x[7] + x[114] + x[17] + x[105] + x[140]
   + x[16] + x[60] + x[79] + x[86] <= 13
 nod51: x[102] + x[24] + x[3] + 10 x[51] + x[40] + x[20] + x[149] + x[130]
   + x[48] + x[65] + x[105] + x[142] + x[92] + x[61] + x[136] + x[86]
   <= 10
 nod52: x[89] + x[25] + x[3] + 10 x[52] + x[72] + x[99] + x[111] + x[26]
   + x[65] + x[44] + x[121] + x[11] + x[129] + x[105] + x[140] + x[56]
   <= 10
 nod116: x[150] + x[89] + x[31] + x[24] + x[134] + x[3] + 11 x[116]
   + x[143] + x[93] + x[40] + x[123] + x[39] + x[15] + x[69] + x[21]
   + x[54] <= 11
 nod90: x[4] + x[106] + x[23] + x[89] + x[45] + x[70] + x[3] + x[98]
   + 12 x[90] + x[34] + x[18] + x[143] + x[26] + x[138] + x[39] + x[66]
   + x[107] + x[141] + x[139] + x[61] <= 12
 nod63: x[31] + x[64] + x[6] + x[3] + 11 x[63] + x[62] + x[100] + x[47]
   + x[143] + x[93] + x[123] + x[142] + x[57] + x[16] + x[56] + x[50]
   + x[79] + x[124] + x[131] + x[87] + x[86] <= 11
 nod29: x[106] + x[150] + x[31] + x[45] + x[30] + x[3] + 11 x[29] + x[18]
   + x[72] + x[55] + x[65] + x[44] + x[11] + x[14] + x[136] <= 11
 nod62: x[102] + x[110] + x[74] + x[25] + x[3] + x[63] + 7 x[62] + x[99]
   + x[76] + x[149] + x[36] + x[69] <= 7
 nod127: x[25] + x[3] + 6 x[127] + x[10] + x[26] + x[95] + x[9] + x[115]
   + x[78] <= 6
 nod34: x[4] + x[102] + x[120] + x[30] + x[118] + x[90] + 12 x[34] + x[55]
   + x[103] + x[111] + x[80] + x[48] + x[65] + x[88] + x[11] + x[129]
   + x[16] + x[60] + x[139] + x[136] + x[131] + x[87] <= 12
 nod100: x[4] + x[106] + x[120] + x[119] + x[24] + x[63] + 13 x[100]
   + x[103] + x[149] + x[123] + x[138] + x[121] + x[129] + x[105] + x[96]
   + x[69] + x[60] + x[139] + x[145] + x[133] <= 13
 nod81: x[4] + x[106] + x[108] + x[117] + x[58] + x[134] + 7 x[81] + x[13]
   + x[80] + x[39] + x[129] + x[132] + x[21] <= 7
 nod47: x[4] + x[102] + x[106] + x[6] + x[119] + x[25] + x[77] + x[63]
   + 12 x[47] + x[72] + x[48] + x[85] + x[115] + x[59] + x[41] + x[78]
   + x[69] + x[46] + x[135] + x[136] <= 12
 nod18: x[4] + x[90] + x[29] + 10 x[18] + x[27] + x[10] + x[66] + x[17]
   + x[92] + x[69] + x[37] + x[60] + x[141] <= 10
 nod143: x[4] + x[102] + x[106] + x[22] + x[49] + x[113] + x[30] + x[58]
   + x[116] + x[90] + x[63] + 10 x[143] + x[149] + x[123] + x[78] + x[92]
   + x[69] + x[21] <= 10
 nod93: x[4] + x[74] + x[45] + x[113] + x[147] + x[77] + x[116] + x[63]
   + 11 x[93] + x[13] + x[148] + x[40] + x[26] + x[80] + x[91] + x[101]
   <= 11
 nod72: x[5] + x[49] + x[118] + x[52] + x[29] + x[47] + 12 x[72] + x[33]
   + x[115] + x[12] + x[96] + x[15] + x[146] + x[145] + x[101] + x[42]
   <= 12
 nod137: x[5] + x[30] + x[58] + 11 x[137] + x[13] + x[148] + x[99] + x[7]
   + x[20] + x[80] + x[92] + x[132] + x[21] + x[42] + x[61] + x[94]
   + x[131] <= 11
 nod13: x[5] + x[126] + x[64] + x[74] + x[81] + x[93] + x[137] + 12 x[13]
   + x[122] + x[33] + x[27] + x[76] + x[9] + x[144] + x[121] + x[15]
   + x[146] + x[57] + x[140] <= 12
 nod148: x[5] + x[102] + x[106] + x[31] + x[25] + x[93] + x[137]
   + 12 x[148] + x[9] + x[65] + x[59] + x[43] + x[129] + x[35] + x[92]
   + x[37] + x[139] + x[136] <= 12
 nod122: x[5] + x[150] + x[23] + x[74] + x[13] + 9 x[122] + x[55] + x[27]
   + x[39] + x[88] + x[96] + x[35] + x[50] <= 9
 nod125: x[5] + x[110] + x[83] + x[126] + x[118] + x[70] + 9 x[125]
   + x[123] + x[142] + x[146] + x[140] + x[104] + x[37] + x[101] + x[21]
   <= 9
 nod33: x[102] + x[120] + x[6] + x[118] + x[77] + x[72] + x[13] + 10 x[33]
   + x[40] + x[39] + x[114] + x[73] + x[75] + x[92] + x[69] + x[132]
   + x[21] <= 10
 nod99: x[64] + x[6] + x[25] + x[58] + x[52] + x[62] + x[137] + 12 x[99]
   + x[103] + x[111] + x[91] + x[68] + x[115] + x[144] + x[14] + x[73]
   + x[69] + x[19] + x[54] + x[135] <= 12
 nod40: x[31] + x[6] + x[74] + x[30] + x[51] + x[116] + x[93] + x[33]
   + 13 x[40] + x[55] + x[27] + x[149] + x[68] + x[107] + x[115] + x[129]
   + x[140] + x[67] + x[69] + x[60] + x[53] + x[38] + x[86] <= 13
 nod55: x[6] + x[24] + x[25] + x[70] + x[134] + x[98] + x[29] + x[34]
   + x[122] + x[40] + 12 x[55] + x[103] + x[10] + x[123] + x[80] + x[115]
   + x[142] + x[19] + x[54] + x[87] <= 12
 nod28: x[108] + x[6] + x[113] + 10 x[28] + x[103] + x[20] + x[149] + x[95]
   + x[88] + x[71] + x[37] + x[60] + x[101] + x[42] <= 10
 nod7: x[83] + x[30] + x[25] + x[98] + x[77] + x[137] + 10 x[7] + x[27]
   + x[103] + x[10] + x[76] + x[111] + x[20] + x[149] + x[26] + x[123]
   + x[138] + x[95] <= 10
 nod27: x[31] + x[118] + x[98] + x[18] + x[13] + x[122] + x[40] + x[7]
   + 9 x[27] + x[95] + x[114] + x[144] + x[96] + x[36] + x[94] <= 9
 nod103: x[23] + x[34] + x[100] + x[99] + x[55] + x[28] + x[7] + 12 x[103]
   + x[80] + x[41] + x[142] + x[132] + x[53] + x[94] + x[87] + x[86] <= 12
 nod10: x[31] + x[127] + x[18] + x[55] + x[7] + 9 x[10] + x[138] + x[144]
   + x[41] + x[43] + x[44] + x[112] + x[88] + x[121] <= 9
 nod76: x[83] + x[23] + x[120] + x[62] + x[13] + x[7] + 9 x[76] + x[20]
   + x[66] + x[91] + x[144] + x[142] + x[140] + x[92] + x[42] <= 9
 nod111: x[102] + x[30] + x[52] + x[34] + x[99] + x[7] + 12 x[111] + x[109]
   + x[48] + x[107] + x[59] + x[121] + x[129] + x[105] + x[141] + x[61]
   + x[50] + x[79] + x[94] + x[131] <= 12
 nod20: x[83] + x[8] + x[113] + x[134] + x[51] + x[137] + x[28] + x[7]
   + x[76] + 8 x[20] + x[39] + x[109] + x[85] + x[41] + x[142] + x[57]
   + x[101] <= 8
 nod149: x[150] + x[117] + x[120] + x[25] + x[51] + x[62] + x[100] + x[143]
   + x[40] + x[28] + x[7] + 12 x[149] + x[123] + x[85] + x[107] + x[144]
   + x[11] + x[56] + x[139] + x[131] + x[38] <= 12
 nod26: x[23] + x[49] + x[8] + x[119] + x[52] + x[90] + x[127] + x[93]
   + x[7] + 13 x[26] + x[9] + x[146] + x[57] + x[104] + x[37] + x[19]
   + x[61] + x[79] <= 13
 nod123: x[84] + x[98] + x[116] + x[63] + x[100] + x[143] + x[125] + x[55]
   + x[7] + x[149] + 11 x[123] + x[85] + x[65] + x[91] + x[35] + x[132]
   <= 11
 nod138: x[8] + x[119] + x[90] + x[100] + x[7] + x[10] + 9 x[138] + x[95]
   + x[82] + x[59] + x[112] + x[11] + x[57] + x[54] + x[87] <= 9
 nod95: x[102] + x[106] + x[126] + x[74] + x[127] + x[28] + x[7] + x[27]
   + x[138] + 11 x[95] + x[48] + x[144] + x[140] + x[131] + x[87] <= 11
 nod80: x[150] + x[117] + x[8] + x[25] + x[70] + x[34] + x[81] + x[93]
   + x[137] + x[55] + x[103] + 14 x[80] + x[17] + x[115] + x[43] + x[44]
   + x[96] + x[73] + x[67] + x[21] <= 14
 nod130: x[108] + x[83] + x[120] + x[126] + x[49] + x[8] + x[118] + x[24]
   + x[51] + 9 x[130] + x[112] + x[88] + x[11] + x[105] + x[140] + x[94]
   + x[124] <= 9
 nod39: x[110] + x[8] + x[84] + x[30] + x[70] + x[134] + x[116] + x[90]
   + x[81] + x[122] + x[33] + x[20] + 13 x[39] + x[68] + x[82] + x[115]
   + x[43] + x[88] + x[146] + x[54] + x[61] <= 13
 nod109: x[83] + x[8] + x[111] + x[20] + 6 x[109] + x[41] + x[88] + x[78]
   + x[69] + x[38] <= 6
 nod48: x[64] + x[8] + x[134] + x[51] + x[34] + x[47] + x[111] + x[95]
   + 11 x[48] + x[9] + x[44] + x[132] + x[53] <= 11
 nod114: x[108] + x[8] + x[113] + x[77] + x[33] + x[27] + 9 x[114] + x[68]
   + x[88] + x[69] + x[132] + x[97] <= 9
 nod85: x[102] + x[8] + x[47] + x[20] + x[149] + x[123] + 6 x[85] + x[96]
   + x[101] + x[46] + x[136] + x[86] <= 6
 nod9: x[150] + x[117] + x[127] + x[13] + x[148] + x[26] + x[48] + 12 x[9]
   + x[32] + x[65] + x[66] + x[91] + x[68] + x[107] + x[17] + x[82]
   + x[115] + x[59] <= 12
 nod32: x[102] + x[108] + x[110] + x[117] + x[89] + x[31] + x[74] + x[24]
   + x[9] + 12 x[32] + x[88] + x[129] + x[37] + x[19] + x[42] + x[46]
   + x[128] <= 12
 nod65: x[45] + x[113] + x[51] + x[52] + x[29] + x[34] + x[148] + x[123]
   + x[9] + 10 x[65] + x[144] + x[121] + x[11] + x[96] + x[54] + x[86]
   <= 10
 nod66: x[102] + x[113] + x[25] + x[98] + x[90] + x[18] + x[76] + x[9]
   + 11 x[66] + x[36] + x[15] + x[71] + x[69] + x[21] + x[46] + x[135]
   <= 11
 nod91: x[102] + x[24] + x[134] + x[93] + x[99] + x[76] + x[123] + x[9]
   + 10 x[91] + x[107] + x[144] + x[41] + x[129] + x[96] + x[56] + x[131]
   <= 10
 nod68: x[22] + x[99] + x[40] + x[39] + x[114] + x[9] + 9 x[68] + x[142]
   + x[57] + x[140] + x[101] <= 9
 nod107: x[102] + x[110] + x[83] + x[120] + x[126] + x[74] + x[24] + x[58]
   + x[98] + x[90] + x[40] + x[111] + x[149] + x[9] + x[91] + 10 x[107]
   + x[105] + x[35] + x[42] + x[131] <= 10
 nod17: x[102] + x[22] + x[45] + x[147] + x[84] + x[77] + x[18] + x[80]
   + x[9] + 8 x[17] + x[140] <= 8
 nod82: x[106] + x[110] + x[120] + x[49] + x[30] + x[138] + x[39] + x[9]
   + 8 x[82] + x[59] + x[105] + x[96] + x[145] <= 8
 nod115: x[126] + x[127] + x[47] + x[72] + x[99] + x[40] + x[55] + x[80]
   + x[39] + x[9] + 11 x[115] + x[11] + x[105] + x[35] + x[36] + x[140]
   + x[78] + x[133] <= 11
 nod59: x[106] + x[117] + x[120] + x[113] + x[47] + x[148] + x[111]
   + x[138] + x[9] + x[82] + 10 x[59] + x[112] + x[88] + x[12] + x[35]
   + x[142] + x[75] + x[16] <= 10
 nod144: x[108] + x[120] + x[118] + x[13] + x[99] + x[27] + x[10] + x[76]
   + x[149] + x[95] + x[65] + x[91] + 8 x[144] + x[146] + x[60] <= 8
 nod41: x[150] + x[126] + x[58] + x[47] + x[103] + x[10] + x[20] + x[109]
   + x[91] + 11 x[41] + x[44] + x[88] + x[96] + x[57] + x[67] + x[56]
   + x[135] + x[97] + x[131] <= 11
 nod43: x[83] + x[148] + x[10] + x[80] + x[39] + 9 x[43] + x[15] + x[75]
   + x[60] + x[21] + x[135] <= 9
 nod44: x[22] + x[126] + x[52] + x[29] + x[10] + x[80] + x[48] + x[41]
   + 13 x[44] + x[121] + x[12] + x[75] + x[92] + x[56] + x[21] + x[42]
   + x[61] + x[124] + x[86] <= 13
 nod112: x[84] + x[10] + x[138] + x[130] + x[59] + 8 x[112] + x[88] + x[11]
   + x[96] + x[140] + x[67] + x[19] <= 8
 nod88: x[45] + x[24] + x[25] + x[134] + x[34] + x[122] + x[28] + x[10]
   + x[130] + x[39] + x[109] + x[114] + x[32] + x[59] + x[41] + x[112]
   + 12 x[88] + x[121] + x[35] + x[71] <= 12
 nod121: x[106] + x[22] + x[31] + x[119] + x[52] + x[100] + x[13] + x[10]
   + x[111] + x[65] + x[44] + x[88] + 9 x[121] + x[15] + x[16] <= 9
 nod11: x[24] + x[70] + x[98] + x[52] + x[29] + x[34] + x[149] + x[138]
   + x[130] + x[65] + x[115] + x[112] + 9 x[11] + x[129] + x[105] <= 9
 nod129: x[30] + x[52] + x[34] + x[100] + x[81] + x[148] + x[40] + x[111]
   + x[32] + x[91] + x[11] + 9 x[129] + x[37] + x[132] + x[61] <= 9
 nod105: x[120] + x[118] + x[77] + x[51] + x[52] + x[100] + x[111] + x[130]
   + x[107] + x[82] + x[115] + x[11] + 10 x[105] + x[146] + x[139] + x[21]
   + x[128] + x[79] <= 10
 nod12: x[110] + x[117] + x[120] + x[89] + x[118] + x[72] + x[59] + x[44]
   + 7 x[12] + x[96] + x[35] + x[36] + x[142] <= 7
 nod96: x[102] + x[108] + x[126] + x[70] + x[100] + x[72] + x[122] + x[27]
   + x[80] + x[85] + x[65] + x[91] + x[82] + x[41] + x[112] + x[12]
   + 13 x[96] + x[16] + x[60] + x[53] <= 13
 nod35: x[126] + x[113] + x[119] + x[70] + x[148] + x[122] + x[123]
   + x[107] + x[115] + x[59] + x[88] + x[12] + 11 x[35] + x[36] + x[140]
   + x[75] + x[67] + x[53] + x[97] <= 11
 nod36: x[22] + x[84] + x[62] + x[27] + x[66] + x[115] + x[12] + x[35]
   + 9 x[36] + x[21] + x[42] + x[124] + x[38] <= 9
 nod142: x[120] + x[49] + x[84] + x[70] + x[51] + x[63] + x[125] + x[55]
   + x[103] + x[76] + x[20] + x[68] + x[59] + x[12] + 10 x[142] + x[128]
   + x[79] <= 10
 nod15: x[116] + x[72] + x[13] + x[66] + x[43] + x[121] + 6 x[15] + x[71]
   + x[92] <= 6
 nod146: x[108] + x[113] + x[118] + x[72] + x[13] + x[125] + x[26] + x[39]
   + x[144] + x[105] + 11 x[146] + x[14] + x[73] + x[141] + x[135] + x[131]
   <= 11
 nod57: x[120] + x[89] + x[63] + x[13] + x[20] + x[26] + x[138] + x[68]
   + x[41] + 10 x[57] + x[73] + x[104] + x[141] + x[50] <= 10
 nod140: x[117] + x[31] + x[49] + x[58] + x[134] + x[77] + x[52] + x[13]
   + x[125] + x[40] + x[76] + x[95] + x[130] + x[68] + x[17] + x[115]
   + x[112] + x[35] + 13 x[140] + x[101] <= 13
 nod14: x[45] + x[113] + x[24] + x[58] + x[29] + x[99] + x[146] + 6 x[14]
   + x[73] + x[75] + x[78] <= 6
 nod73: x[22] + x[31] + x[74] + x[118] + x[98] + x[33] + x[99] + x[80]
   + x[146] + x[57] + x[14] + 8 x[73] + x[75] + x[21] <= 8
 nod75: x[110] + x[89] + x[45] + x[25] + x[33] + x[59] + x[43] + x[44]
   + x[35] + x[14] + x[73] + 10 x[75] + x[71] + x[69] + x[145] + x[97]
   <= 10
 nod78: x[83] + x[22] + x[113] + x[127] + x[47] + x[143] + x[109] + x[115]
   + x[14] + 10 x[78] + x[71] + x[67] + x[37] + x[53] + x[79] <= 10
 nod71: x[83] + x[150] + x[23] + x[31] + x[64] + x[28] + x[66] + x[88]
   + x[15] + x[75] + x[78] + 9 x[71] + x[86] <= 9
 nod92: x[30] + x[70] + x[58] + x[51] + x[18] + x[143] + x[137] + x[148]
   + x[33] + x[76] + x[44] + x[15] + 12 x[92] + x[101] + x[46] + x[86]
   <= 12
 nod16: x[102] + x[110] + x[64] + x[118] + x[77] + x[63] + x[34] + x[59]
   + x[121] + x[96] + 9 x[16] + x[67] + x[69] + x[104] + x[56] <= 9
 nod67: x[106] + x[45] + x[30] + x[40] + x[80] + x[41] + x[112] + x[35]
   + x[78] + x[16] + 12 x[67] + x[145] + x[94] + x[86] <= 12
 nod69: x[83] + x[126] + x[45] + x[30] + x[116] + x[62] + x[100] + x[47]
   + x[18] + x[143] + x[33] + x[99] + x[40] + x[109] + x[114] + x[66]
   + x[75] + x[16] + 13 x[69] + x[104] + x[19] + x[61] <= 13
 nod104: x[83] + x[150] + x[120] + x[64] + x[49] + x[58] + x[134] + x[125]
   + x[26] + x[57] + x[16] + x[69] + 10 x[104] + x[19] + x[132] + x[42]
   + x[53] + x[86] <= 10
 nod56: x[110] + x[117] + x[31] + x[49] + x[70] + x[52] + x[63] + x[149]
   + x[91] + x[41] + x[44] + x[16] + 11 x[56] + x[60] + x[132] + x[101]
   + x[46] + x[124] + x[38] <= 11
 nod37: x[126] + x[74] + x[24] + x[25] + x[98] + x[18] + x[148] + x[125]
   + x[28] + x[26] + x[32] + x[129] + x[78] + 13 x[37] + x[133] + x[135]
   + x[86] <= 13
 nod60: x[120] + x[118] + x[25] + x[77] + x[34] + x[100] + x[18] + x[40]
   + x[28] + x[144] + x[43] + x[96] + x[56] + 12 x[60] + x[19] + x[133]
   + x[124] <= 12
 nod141: x[30] + x[90] + x[18] + x[111] + x[146] + x[57] + 6 x[141] + x[19]
   + x[132] + x[145] + x[50] <= 6
 nod19: x[106] + x[83] + x[45] + x[99] + x[55] + x[26] + x[32] + x[112]
   + x[69] + x[104] + x[60] + x[141] + 11 x[19] + x[132] + x[139] + x[145]
   <= 11
 nod132: x[83] + x[120] + x[58] + x[81] + x[137] + x[33] + x[103] + x[123]
   + x[48] + x[114] + x[129] + x[104] + x[56] + x[141] + x[19] + 10 x[132]
   + x[136] <= 10
 nod139: x[84] + x[24] + x[90] + x[34] + x[100] + x[148] + x[149] + x[105]
   + x[19] + 9 x[139] + x[135] + x[97] <= 9
 nod145: x[25] + x[70] + x[58] + x[100] + x[72] + x[82] + x[75] + x[67]
   + x[141] + x[19] + 10 x[145] + x[135] + x[97] <= 10
 nod101: x[113] + x[119] + x[93] + x[72] + x[125] + x[28] + x[20] + x[85]
   + x[68] + x[140] + x[92] + x[56] + 12 x[101] + x[135] + x[53] + x[128]
   + x[79] <= 12
 nod21: x[31] + x[116] + x[81] + x[143] + x[137] + x[125] + x[33] + x[80]
   + x[66] + x[43] + x[44] + x[105] + x[36] + x[73] + 13 x[21] + x[133]
   + x[42] + x[46] + x[54] <= 13
 nod133: x[106] + x[113] + x[30] + x[100] + x[115] + x[37] + x[60] + x[21]
   + 10 x[133] + x[128] + x[94] + x[38] <= 10
 nod42: x[24] + x[98] + x[72] + x[137] + x[28] + x[76] + x[32] + x[107]
   + x[44] + x[36] + x[104] + x[21] + 11 x[42] + x[54] + x[135] <= 11
 nod46: x[98] + x[47] + x[85] + x[32] + x[66] + x[92] + x[56] + x[21]
   + 9 x[46] + x[61] + x[79] + x[94] + x[87] + x[38] + x[86] <= 9
 nod54: x[83] + x[25] + x[116] + x[99] + x[55] + x[138] + x[39] + x[65]
   + x[21] + x[42] + 8 x[54] + x[61] <= 8
 nod135: x[106] + x[23] + x[64] + x[49] + x[47] + x[99] + x[66] + x[41]
   + x[43] + x[146] + x[37] + x[139] + x[145] + x[101] + x[42] + 13 x[135]
   + x[61] <= 13
 nod53: x[89] + x[49] + x[118] + x[119] + x[24] + x[40] + x[103] + x[48]
   + x[96] + x[35] + x[78] + x[104] + x[101] + 11 x[53] + x[97] + x[124]
   <= 11
 nod61: x[110] + x[120] + x[31] + x[64] + x[24] + x[51] + x[90] + x[137]
   + x[111] + x[26] + x[39] + x[44] + x[129] + x[69] + x[46] + x[54]
   + x[135] + 12 x[61] <= 12
 nod128: x[25] + x[32] + x[105] + x[142] + x[101] + x[133] + 6 x[128]
   + x[136] <= 6
 nod136: x[106] + x[25] + x[98] + x[51] + x[29] + x[34] + x[47] + x[148]
   + x[85] + x[132] + x[128] + 8 x[136] <= 8
 nod50: x[45] + x[119] + x[25] + x[58] + x[63] + x[122] + x[111] + x[57]
   + x[141] + 8 x[50] + x[131] + x[87] <= 8
 nod79: x[150] + x[147] + x[119] + x[77] + x[63] + x[111] + x[26] + x[105]
   + x[142] + x[78] + x[101] + x[46] + 8 x[79] <= 8
 nod94: x[120] + x[84] + x[98] + x[137] + x[27] + x[103] + x[111] + x[130]
   + x[67] + x[133] + x[46] + 9 x[94] <= 9
 nod97: x[106] + x[83] + x[30] + x[118] + x[134] + x[114] + x[41] + x[35]
   + x[75] + x[139] + x[145] + x[53] + 9 x[97] <= 9
 nod124: x[120] + x[89] + x[31] + x[119] + x[63] + x[130] + x[44] + x[36]
   + x[56] + x[60] + x[53] + 7 x[124] <= 7
 nod131: x[83] + x[150] + x[118] + x[134] + x[63] + x[34] + x[137] + x[111]
   + x[149] + x[95] + x[91] + x[107] + x[41] + x[146] + x[50] + 9 x[131]
   + x[87] <= 9
 nod87: x[117] + x[63] + x[34] + x[55] + x[103] + x[138] + x[95] + x[46]
   + x[50] + x[131] + 5 x[87] + x[86] <= 5
 nod38: x[102] + x[83] + x[117] + x[84] + x[40] + x[149] + x[109] + x[36]
   + x[56] + x[133] + x[46] + 7 x[38] <= 7
 nod86: x[77] + x[51] + x[63] + x[40] + x[103] + x[85] + x[65] + x[44]
   + x[71] + x[92] + x[67] + x[104] + x[37] + x[46] + x[87] + 10 x[86]
   <= 10
Bounds
Binaries
 x[1] x[4] x[5] x[102] x[106] x[108] x[110] x[83] x[150] x[117] x[22] x[23]
 x[120] x[89] x[126] x[31] x[2] x[64] x[6] x[49] x[8] x[74] x[45] x[113]
 x[147] x[84] x[30] x[118] x[119] x[24] x[25] x[70] x[58] x[134] x[3] x[98]
 x[77] x[51] x[52] x[116] x[90] x[63] x[29] x[62] x[127] x[34] x[100] x[81]
 x[47] x[18] x[143] x[93] x[72] x[137] x[13] x[148] x[122] x[125] x[33]
 x[99] x[40] x[55] x[28] x[7] x[27] x[103] x[10] x[76] x[111] x[20] x[149]
 x[26] x[123] x[138] x[95] x[80] x[130] x[39] x[109] x[48] x[114] x[85]
 x[9] x[32] x[65] x[66] x[91] x[68] x[107] x[17] x[82] x[115] x[59] x[144]
 x[41] x[43] x[44] x[112] x[88] x[121] x[11] x[129] x[105] x[12] x[96]
 x[35] x[36] x[142] x[15] x[146] x[57] x[140] x[14] x[73] x[75] x[78] x[71]
 x[92] x[16] x[67] x[69] x[104] x[56] x[37] x[60] x[141] x[19] x[132]
 x[139] x[145] x[101] x[21] x[133] x[42] x[46] x[54] x[135] x[53] x[61]
 x[128] x[136] x[50] x[79] x[94] x[97] x[124] x[131] x[87] x[38] x[86]
End
